(set-logic ALL)
(set-option :produce-models true)
(declare-sort BoundSet 0)
(declare-sort UnboundSet 0)
(declare-fun IsLaughing (BoundSet) Bool)
(assert (not (=> (exists ((c BoundSet)) (exists ((a BoundSet)) (exists ((b BoundSet)) (and (IsLaughing a) (and (IsLaughing b) (IsLaughing c)))))) (exists ((b BoundSet)) (IsLaughing b)))))
(check-sat)
(get-model)